Route #1: 112 111 113 85 76 84 9 15 69 44 41 68 40 91 38 99 35 27 47
Route #2: 11 43 19 110 48 80 88 74 87 61 49 20 52 42 105
Route #3: 60 96 108 36 100 50 94 4 107 67 18 33
Route #4: 73 103 25 72 77 56 81 98 39 78 59 114 13 46 66 82 34 62 104 70
Route #5: 37 12 32 57 71 14
Route #6: 51 54 10 115 31 45 28 106 89 83 22 53
Route #7: 30 79 55 63 95 21 102 5 93 58 101 29
Route #8: 65 64 8 2 75 86
Route #9: 90 7 109 6
Route #10: 92 3 24 97 23 26 17 16
